125
[13,15,18,21,23,24,25,26,27,28,30,31,32,34,35,36,37,39,41,43,45,46,47,48,49,50,51,52,54,57,58,59,60,61,63,65,67,68,69,70,71,72,73,76,77,79,81,82,83,84,85,88,89,90,91,94,95,97,98,99]
[1,2,3,1,3,2,2,1,2,1,3,1,1,2,1,1,1,1,1,2,1,1,1,1,3,2,4,3,1,1,5,1,2,1,1,3,1,3,1,1,1,1,2,1,1,2,1,1,1,2,2,1,1,2,3,1,1,3,3,1]
